
Gurobi 13.0.1 (linux64) logging started Fri Mar 27 00:37:16 2026

Set parameter LogFile to value "logs_sparse/100B_3F_robust_gamma_0d2_theta_0d05199999999999999_2026-03-27_00h36m49s.log"
Set parameter MIPGap to value 0.005
Set parameter OptimalityTol to value 0.005
Gurobi Optimizer version 13.0.1 build v13.0.1rc0 (linux64 - "Linux Mint 22")

CPU model: 12th Gen Intel(R) Core(TM) i7-12700, instruction set [SSE2|AVX|AVX2]
Thread count: 20 physical cores, 20 logical processors, using up to 20 threads

Non-default parameters:
TimeLimit  3600
SoftMemLimit  12
MIPGap  0.005
OptimalityTol  0.005

Optimize a model with 60721 rows, 1531121 columns and 4635098 nonzeros (Max)
Model fingerprint: 0x83d54d52
Model has 1485111 linear objective coefficients
Variable types: 16121 continuous, 1515000 integer (1515000 binary)
Coefficient statistics:
  Matrix range     [3e-05, 1e+05]
  Objective range  [1e+00, 3e+03]
  Bounds range     [1e+00, 1e+05]
  RHS range        [1e+00, 1e+05]

Presolve removed 36714 rows and 1241081 columns
Presolve time: 0.68s
Presolved: 24007 rows, 290040 columns, 921754 nonzeros
Variable types: 6446 continuous, 283594 integer (283594 binary)
Found heuristic solution: objective -4.94437e+08
Performing another presolve...
Presolve added 0 rows and 10 columns
Presolve removed 18 rows and 0 columns
Presolve time: 1.24s
Deterministic concurrent LP optimizer: primal simplex, dual simplex, and barrier
Showing barrier log only...

Root barrier log...

Ordering time: 0.73s

Barrier statistics:
 AA' NZ     : 4.530e+05
 Factor NZ  : 4.046e+06 (roughly 160 MB of memory)
 Factor Ops : 1.382e+09 (less than 1 second per iteration)
 Threads    : 18

                  Objective                Residual
Iter       Primal          Dual         Primal    Dual     Compl     Time
   0  -1.62831534e+12  1.34981018e+09  6.43e+07 1.02e+03  1.65e+07     4s
   1  -1.97386581e+11  3.11626569e+09  7.81e+06 1.52e+03  2.04e+06     4s
   2  -5.45655688e+09  2.29590045e+09  2.22e+05 2.70e+01  6.16e+04     4s
   3  -1.56409522e+08  2.45176310e+09  1.88e+04 1.93e+00  8.31e+03     4s
   4   2.81858025e+08  1.50832875e+09  1.87e+03 7.41e-01  2.42e+03     4s
   5   3.39790182e+08  7.01247376e+08  1.89e+02 1.67e-01  6.37e+02     4s
   6   3.51788295e+08  4.70799027e+08  5.97e+01 7.80e-02  2.09e+02     4s
   7   3.56245706e+08  3.85806391e+08  1.76e+01 1.72e-02  5.22e+01     4s
   8   3.57771965e+08  3.71651283e+08  5.65e+00 1.03e-02  2.41e+01     4s
   9   3.58298393e+08  3.62986999e+08  2.04e+00 2.41e-03  8.07e+00     4s
  10   3.58456660e+08  3.60430616e+08  1.12e+00 8.48e-04  3.39e+00     4s
  11   3.58657849e+08  3.59430950e+08  1.52e-01 3.25e-04  1.31e+00     4s
  12   3.58699843e+08  3.59142203e+08  5.77e-02 1.86e-04  7.48e-01     5s
  13   3.58728169e+08  3.58979793e+08  2.22e-02 1.07e-04  4.25e-01     5s
  14   3.58738436e+08  3.58891653e+08  1.25e-02 6.37e-05  2.59e-01     5s
  15   3.58743920e+08  3.58833168e+08  7.82e-03 3.54e-05  1.51e-01     5s
  16   3.58746095e+08  3.58804558e+08  6.22e-03 2.11e-05  9.88e-02     5s
  17   3.58752282e+08  3.58785608e+08  2.33e-03 1.25e-05  5.63e-02     5s
  18   3.58753382e+08  3.58776598e+08  1.60e-03 8.52e-06  3.92e-02     5s
  19   3.58754911e+08  3.58769920e+08  8.04e-04 5.61e-06  2.54e-02     5s
  20   3.58755481e+08  3.58765854e+08  4.90e-04 3.77e-06  1.75e-02     5s
  21   3.58755825e+08  3.58764116e+08  3.06e-04 3.15e-06  1.40e-02     5s
  22   3.58756038e+08  3.58762062e+08  2.08e-04 2.24e-06  1.02e-02     5s
  23   3.58756138e+08  3.58760254e+08  1.65e-04 1.47e-06  6.95e-03     5s
  24   3.58756217e+08  3.58759634e+08  1.38e-04 1.21e-06  5.77e-03     5s
  25   3.58756367e+08  3.58758705e+08  8.72e-05 8.13e-07  3.95e-03     5s
  26   3.58756408e+08  3.58757701e+08  7.26e-05 4.21e-07  2.19e-03     5s
  27   3.58756484e+08  3.58757385e+08  4.75e-05 2.99e-07  1.52e-03     6s
  28   3.58756520e+08  3.58757360e+08  3.72e-05 2.88e-07  1.42e-03     6s
  29   3.58756544e+08  3.58757217e+08  3.02e-05 2.27e-07  1.14e-03     6s
  30   3.58756567e+08  3.58757124e+08  2.29e-05 2.00e-07  9.41e-04     6s
  31   3.58756586e+08  3.58756928e+08  1.71e-05 1.14e-07  5.77e-04     6s
  32   3.58756608e+08  3.58756824e+08  1.02e-05 7.01e-08  3.64e-04     6s
  33   3.58756615e+08  3.58756776e+08  8.62e-06 5.70e-08  2.73e-04     6s
  34   3.58756619e+08  3.58756749e+08  7.49e-06 4.38e-08  2.19e-04     6s
  35   3.58756625e+08  3.58756728e+08  6.10e-06 3.46e-08  1.74e-04     6s
  36   3.58756635e+08  3.58756691e+08  3.53e-06 1.71e-08  9.36e-05     6s
  37   3.58756643e+08  3.58756683e+08  1.76e-06 1.36e-08  6.73e-05     6s
  38   3.58756647e+08  3.58756671e+08  8.43e-07 8.20e-09  3.97e-05     6s
  39   3.58756649e+08  3.58756659e+08  4.14e-07 3.13e-09  1.62e-05     6s
  40   3.58756650e+08  3.58756656e+08  3.48e-07 1.93e-09  1.11e-05     6s
  41   3.58756651e+08  3.58756654e+08  1.44e-07 9.10e-10  5.54e-06     7s
  42   3.58756651e+08  3.58756653e+08  1.07e-07 6.78e-10  4.18e-06     7s

Barrier solved model in 42 iterations and 6.58 seconds (9.04 work units)
Optimal objective 3.58756651e+08


Root crossover log...

    7052 DPushes remaining with DInf 0.0000000e+00                 7s
       0 DPushes remaining with DInf 0.0000000e+00                 7s

    5982 PPushes remaining with PInf 1.3445433e-01                 7s
       0 PPushes remaining with PInf 8.8461829e-05                 7s

  Push phase complete: Pinf 8.8461829e-05, Dinf 3.4847626e+04      7s


Root simplex log...

Iteration    Objective       Primal Inf.    Dual Inf.      Time
   12711    3.5875665e+08   0.000000e+00   3.484753e+04      7s
   13278    3.5875665e+08   0.000000e+00   0.000000e+00      7s
Crossover time: 0.46 seconds (0.41 work units)
Concurrent spin time: 0.65s (can be avoided by choosing Method=3)

Solved with barrier

Root relaxation: objective 3.587567e+08, 13278 iterations, 5.12 seconds (5.14 work units)
Total elapsed time = 7.71s (DegenMoves)

    Nodes    |    Current Node    |     Objective Bounds      |     Work
 Expl Unexpl |  Obj  Depth IntInf | Incumbent    BestBd   Gap | It/Node Time

     0     0 3.5876e+08    0 7086 -4.944e+08 3.5876e+08   173%     -    8s
H    0     0                    -6.33096e+07 3.5876e+08   667%     -    8s
H    0     0                    -4.89682e+07 3.5876e+08   833%     -    8s
H    0     0                    2.211555e+07 3.5876e+08  1522%     -    9s
H    0     0                    2.905558e+07 3.5876e+08  1135%     -    9s
H    0     0                    1.499669e+08 3.5876e+08   139%     -   13s
H    0     0                    2.409768e+08 3.5876e+08  48.9%     -   14s
H    0     0                    2.409816e+08 3.5876e+08  48.9%     -   16s
     0     0 3.5876e+08    0 7103 2.4098e+08 3.5876e+08  48.9%     -  344s
H    0     0                    2.416038e+08 3.5876e+08  48.5%     -  353s
H    0     0                    2.480366e+08 3.5876e+08  44.6%     -  391s
H    0     0                    2.519769e+08 3.5876e+08  42.4%     -  431s
H    0     0                    2.531777e+08 3.5876e+08  41.7%     -  482s
H    0     0                    2.534706e+08 3.5876e+08  41.5%     -  502s
H    0     0                    2.553642e+08 3.5876e+08  40.5%     -  523s
     0     0 3.5876e+08    0 6890 2.5536e+08 3.5876e+08  40.5%     -  832s
     0     0 3.5875e+08    0 7290 2.5536e+08 3.5875e+08  40.5%     - 1590s
H    0     0                    2.708573e+08 3.5875e+08  32.5%     - 1599s
H    0     0                    2.766536e+08 3.5875e+08  29.7%     - 1600s
H    0     0                    2.803327e+08 3.5875e+08  28.0%     - 1612s
H    0     0                    2.881512e+08 3.5875e+08  24.5%     - 1648s
H    0     0                    2.907556e+08 3.5875e+08  23.4%     - 1739s
H    0     0                    2.909322e+08 3.5875e+08  23.3%     - 1827s
H    0     0                    2.915674e+08 3.5875e+08  23.0%     - 1834s
H    0     0                    2.918025e+08 3.5875e+08  22.9%     - 1844s
H    0     0                    2.918297e+08 3.5875e+08  22.9%     - 1853s
H    0     0                    2.922339e+08 3.5875e+08  22.8%     - 1853s
H    0     0                    2.924184e+08 3.5875e+08  22.7%     - 1853s
H    0     0                    2.925639e+08 3.5875e+08  22.6%     - 1886s
H    0     0                    2.925646e+08 3.5875e+08  22.6%     - 1886s
H    0     0                    2.925671e+08 3.5875e+08  22.6%     - 1886s
H    0     0                    2.925684e+08 3.5875e+08  22.6%     - 1947s
H    0     0                    2.925696e+08 3.5875e+08  22.6%     - 1955s
H    0     0                    2.925699e+08 3.5875e+08  22.6%     - 1955s
H    0     0                    2.925870e+08 3.5875e+08  22.6%     - 1955s
H    0     0                    2.926030e+08 3.5875e+08  22.6%     - 1961s
H    0     0                    2.926049e+08 3.5875e+08  22.6%     - 1961s
     0     0 3.5875e+08    0 7157 2.9260e+08 3.5875e+08  22.6%     - 2139s
     0     0 3.5875e+08    0 7192 2.9260e+08 3.5875e+08  22.6%     - 2393s
     0     0 3.5875e+08    0 7204 2.9260e+08 3.5875e+08  22.6%     - 2423s
     0     0 3.5875e+08    0 7335 2.9260e+08 3.5875e+08  22.6%     - 2653s
     0     0 3.5875e+08    0 7332 2.9260e+08 3.5875e+08  22.6%     - 2681s
     0     0 3.5875e+08    0 7455 2.9260e+08 3.5875e+08  22.6%     - 2884s
     0     0 3.5875e+08    0 7455 2.9260e+08 3.5875e+08  22.6%     - 2886s
     0     0 3.5875e+08    0 7419 2.9260e+08 3.5875e+08  22.6%     - 2886s
     0     2 3.5875e+08    0 7419 2.9260e+08 3.5875e+08  22.6%     - 3097s
     1     3 3.5875e+08    1 6323 2.9260e+08 3.5875e+08  22.6% 109624 3265s
     2     4 3.5875e+08    1 7358 2.9260e+08 3.5875e+08  22.6% 148642 3483s
     3     5 3.5875e+08    2 7280 2.9260e+08 3.5875e+08  22.6% 103542 3600s

Cutting planes:
  MIR: 11
  Flow cover: 80
  RLT: 2391
  Relax-and-lift: 99

Explored 4 nodes (1450434 simplex iterations) in 3600.10 seconds (6563.40 work units)
Thread count was 20 (of 20 available processors)

Solution count 10: 2.92605e+08 2.92603e+08 2.92587e+08 ... 2.92418e+08

Time limit reached
Best objective 2.926048593258e+08, best bound 3.587539226900e+08, gap 22.6070%
